c FILE			: 5_20.gr
c No. of vertices	: 5
c No. of directed edges	: 20
c Max. weight		: 100
c Min. weight		: 0
c A directed arc from u to v of weight w
c is represented below as ' a  u  v  w '
p sp 5 20
a 1 2 68
a 1 3 33
a 1 4 77
a 1 5 41
a 2 1 15
a 2 3 61
a 2 4 52
a 2 5 29
a 3 1 44
a 3 2 9
a 3 4 76
a 3 5 33
a 4 1 70
a 4 2 91
a 4 3 36	
a 4 5 21
a 5 1 71
a 5 2 0
a 5 3 14
a 5 4 33

